p edge 20 80
e 1 4
e 1 9
e 1 12
e 1 17
e 2 3
e 2 8
e 2 10
e 2 15
e 3 4
e 3 7
e 3 8
e 3 11
e 4 3
e 4 10
e 4 16
e 4 18
e 5 3
e 5 10
e 5 10
e 5 19
e 6 8
e 6 14
e 6 16
e 6 17
e 7 3
e 7 10
e 7 12
e 7 12
e 8 2
e 8 14
e 8 19
e 8 20
e 9 5
e 9 18
e 9 19
e 9 20
e 10 5
e 10 11
e 10 16
e 10 17
e 11 5
e 11 7
e 11 12
e 11 14
e 12 1
e 12 8
e 12 14
e 12 17
e 13 3
e 13 6
e 13 11
e 13 17
e 14 2
e 14 2
e 14 6
e 14 6
e 15 3
e 15 5
e 15 8
e 15 17
e 16 1
e 16 6
e 16 7
e 16 10
e 17 5
e 17 14
e 17 14
e 17 18
e 18 3
e 18 6
e 18 11
e 18 16
e 19 8
e 19 9
e 19 15
e 19 15
e 20 4
e 20 5
e 20 11
e 20 13
